n_res = 3;
rcap = [15, 18, 23];
rtype = [1, 1, 2];
n_tasks = 16;
modes = [ {1, 2, 3}, {4, 5, 6}, {7, 8, 9}, {10, 11, 12}, {13, 14, 15}, {16, 17, 18}, {19, 20, 21}, {22, 23, 24}, {25, 26, 27}, {28, 29, 30}, {31, 32, 33}, {34, 35, 36}, {37, 38, 39}, {40, 41, 42}, {43, 44, 45}, {46, 47, 48} ];
succ = [ {4, 14}, {13, 14}, {14, 15, 16}, {5, 6, 9}, {7, 11, 16}, {7, 8}, {10, 12}, {10, 11, 12}, {10, 11, 16}, {13}, {15}, {13}, {15}, {}, {}, {} ];
n_opt = 48;
dur = [5, 7, 9, 3, 5, 7, 3, 5, 6, 3, 6, 8, 3, 6, 9, 3, 7, 10, 1, 7, 8, 2, 3, 10, 3, 6, 10, 6, 8, 9, 1, 2, 4, 4, 7, 8, 4, 8, 9, 4, 4, 10, 2, 2, 9, 2, 3, 9];
rreq = [|  0,  0,  5,  0,  9,  0,  0,  4,  0,  0,  0,  0,  5,  4,  0,  7,  6,  4,  0,  0,  0,  0,  9,  7,  5,  5,  3,  0,  9,  0,  8,  0,  7,  9,  7,  0,  0,  0,  0,  0,  4,  0,  2,  3,  2,  7,  7,  0
        |  5,  4,  0,  7,  0,  6,  7,  0,  5,  4,  3,  2,  0,  0,  8,  0,  0,  0,  7,  6,  5,  6,  0,  0,  0,  0,  0, 10,  0, 10,  0,  9,  0,  0,  0,  3,  9,  8,  7,  5,  0,  6,  0,  0,  0,  0,  0,  7
        |  0,  0,  6,  0,  1,  0,  3,  0,  0,  8,  0,  0,  0,  6,  3,  0,  6,  2,  7,  0,  7,  1,  0,  0,  4,  0,  2,  6,  6,  5,  0,  7,  3,  8,  0,  0,  0,  0,  5,  4,  0,  0,  5,  1,  0,  1,  0,  0 |];
